N = 7;
Capacity = 4;
nbVehicles = 9;
maxVisitsPerCustomer = 2;
ItemsPerCustomer = [2, 4, 2, 5, 8, 6, 6];
maxItemsPerCustomer = 8;
binCapacity = 50;
SizesOfItems = [|
  35, 26, 0, 0, 0, 0, 0, 0
| 21, 19, 17, 13, 0, 0, 0, 0
| 29, 23, 0, 0, 0, 0, 0, 0
| 36, 22, 18, 14, 11, 0, 0, 0
| 39, 35, 33, 28, 24, 23, 13, 11
| 38, 37, 26, 23, 20, 15, 0, 0
| 50, 50, 50, 50, 50, 50, 0, 0
|];
Distance = [|
  0, 42, 35, 55, 42, 14, 56, 44
| 42, 0, 77, 72, 77, 48, 26, 37
| 35, 77, 0, 58, 26, 32, 86, 68
| 55, 72, 58, 0, 33, 41, 61, 38
| 42, 77, 26, 33, 0, 30, 78, 55
| 14, 48, 32, 41, 30, 0, 54, 37
| 56, 26, 86, 61, 78, 54, 0, 24
| 44, 37, 68, 38, 55, 37, 24, 0
|];
